
  12    4
  10   10   10   10

   0   0   0   0   0   3 2 3 6 
  10  10  10  10  10   3 8 7 4 
   4  10  10  10  10   2 10 5 
   3  10  10  10  10   3 11 10 9 
   7  10  10  10  10   2 11 7 
   6  10  10  10  10   2 9 8 
   9  10  10  10  10   1 9 
   1  10  10  10  10   1 10 
   7  10  10  10  10   1 12
   4  10  10  10  10   1 12
   2  10  10  10  10   1 12
   0   0   0   0   0   0 
